benchmark_str_length/p2_10_10-0.dzn
Alphabet = {A,C,G,T};
ns = 10;
nc = 8;
sl = 10;
neighbours = [| I(T),I(C),I(A),I(G),I(G),I(C),Null,Null | I(A),I(G),I(A),Null,Null,Null,Null,Null | I(C),I(T),I(T),Null,Null,Null,Null,Null | I(A),I(A),Null,Null,Null,Null,Null,Null | I(A),I(C),I(A),I(T),Null,Null,Null,Null | I(C),I(C),I(G),I(C),Null,Null,Null,Null | I(A),I(A),I(A),I(G),I(C),I(G),I(A),I(G) | I(A),Null,Null,Null,Null,Null,Null,Null | I(A),I(T),I(G),I(C),Null,Null,Null,Null | I(C),I(A),I(G),I(A),I(C),I(C),I(C),Null |];
