benchmark_str_length/p2_10_10-0.txt
{
	"num_strings": 10,
	"alphabet": "ACGT",
	"strings": [
		"TCAGGC",
		"AGA",
		"CTT",
		"AA",
		"ACAT",
		"CCGC",
		"AAAGCGAG",
		"A",
		"ATGC",
		"CAGACCC"
	],
	"str_length":[6,3,3,2,4,4,8,1,4,7]
}